
Gurobi 8.1.1 (win64) logging started 11/24/19 12:29:56

Changed value of parameter LogFile to logs/drand/feas/drand-10-075-2.log
   Prev: gurobi.log  Default: 
Changed value of parameter LogToConsole to 0
   Prev: 1  Min: 0  Max: 1  Default: 1
Changed value of parameter TimeLimit to 3600.0
   Prev: 1e+100  Min: 0.0  Max: 1e+100  Default: 1e+100
Optimize a model with 802 rows, 369 columns and 2952 nonzeros
Variable types: 0 continuous, 369 integer (360 binary)
Coefficient statistics:
  Matrix range     [1e+00, 4e+02]
  Objective range  [1e+00, 1e+00]
  Bounds range     [1e+00, 1e+00]
  RHS range        [1e+00, 4e+02]
Presolve time: 0.01s
Presolved: 802 rows, 369 columns, 2952 nonzeros
Variable types: 0 continuous, 369 integer (360 binary)

Root relaxation: objective 3.600000e+01, 146 iterations, 0.00 seconds

    Nodes    |    Current Node    |     Objective Bounds      |     Work
 Expl Unexpl |  Obj  Depth IntInf | Incumbent    BestBd   Gap | It/Node Time

     0     0   36.00000    0  111          -   36.00000      -     -    0s
     0     0   38.87971    0  113          -   38.87971      -     -    0s
H    0     0                     185.0000000   38.87971  79.0%     -    0s
H    0     0                     177.0000000   38.87971  78.0%     -    0s
     0     0   45.29989    0   81  177.00000   45.29989  74.4%     -    0s
     0     0   45.29989    0   81  177.00000   45.29989  74.4%     -    0s
     0     0   45.53457    0   80  177.00000   45.53457  74.3%     -    0s
     0     0   45.53457    0   86  177.00000   45.53457  74.3%     -    0s
     0     0   45.58435    0   84  177.00000   45.58435  74.2%     -    0s
     0     0   45.58435    0   67  177.00000   45.58435  74.2%     -    0s
     0     2   45.58435    0   61  177.00000   45.58435  74.2%     -    0s
H  782   541                     173.0000000  100.00000  42.2%   8.1    0s
H 1176   624                     171.0000000  100.00000  41.5%  14.8    0s
H 1940   491                     166.0000000  115.27172  30.6%  15.3    1s

Cutting planes:
  Gomory: 5
  Implied bound: 3
  MIR: 4
  StrongCG: 2

Explored 3286 nodes (45056 simplex iterations) in 1.84 seconds
Thread count was 4 (of 4 available processors)

Solution count 5: 166 171 173 ... 185

Optimal solution found (tolerance 1.00e-04)
Best objective 1.660000000000e+02, best bound 1.660000000000e+02, gap 0.0000%

Gurobi 8.1.1 (win64) logging started 11/24/19 12:29:58

Changed value of parameter LogFile to logs/drand/feas/drand-10-075-2.log
   Prev: gurobi.log  Default: 
Changed value of parameter LogToConsole to 0
   Prev: 1  Min: 0  Max: 1  Default: 1
Changed value of parameter TimeLimit to 3600.0
   Prev: 1e+100  Min: 0.0  Max: 1e+100  Default: 1e+100
Optimize a model with 472 rows, 217 columns and 1722 nonzeros
Variable types: 0 continuous, 217 integer (210 binary)
Coefficient statistics:
  Matrix range     [1e+00, 4e+02]
  Objective range  [1e+00, 1e+00]
  Bounds range     [1e+00, 1e+00]
  RHS range        [1e+00, 4e+02]
Presolve time: 0.01s
Presolved: 472 rows, 217 columns, 1722 nonzeros
Variable types: 0 continuous, 217 integer (210 binary)

Root relaxation: objective 2.366667e+01, 169 iterations, 0.00 seconds

    Nodes    |    Current Node    |     Objective Bounds      |     Work
 Expl Unexpl |  Obj  Depth IntInf | Incumbent    BestBd   Gap | It/Node Time

     0     0   23.66667    0  113          -   23.66667      -     -    0s
     0     0   33.81340    0   70          -   33.81340      -     -    0s
     0     0   33.95864    0   69          -   33.95864      -     -    0s
     0     0   37.97927    0   56          -   37.97927      -     -    0s
     0     0   38.71720    0   56          -   38.71720      -     -    0s
     0     0   38.91747    0   57          -   38.91747      -     -    0s
     0     0   38.91747    0   55          -   38.91747      -     -    0s
     0     0   38.93947    0   53          -   38.93947      -     -    0s
     0     0   38.93947    0   50          -   38.93947      -     -    0s
     0     0   40.14022    0   67          -   40.14022      -     -    0s
     0     0   40.24669    0   70          -   40.24669      -     -    0s
     0     0   40.39218    0   70          -   40.39218      -     -    0s
     0     0   40.39218    0   71          -   40.39218      -     -    0s
     0     0   41.64779    0   62          -   41.64779      -     -    0s
     0     0   43.39547    0   57          -   43.39547      -     -    0s
     0     0   43.77110    0   59          -   43.77110      -     -    0s
     0     0   43.77110    0   58          -   43.77110      -     -    0s
     0     0   43.77353    0   59          -   43.77353      -     -    0s
     0     0   43.77353    0   62          -   43.77353      -     -    0s
     0     0   44.17403    0   77          -   44.17403      -     -    0s
     0     0   44.17403    0   78          -   44.17403      -     -    0s
     0     0   44.19480    0   60          -   44.19480      -     -    0s
     0     0   44.19480    0   65          -   44.19480      -     -    0s
     0     0   45.48640    0   58          -   45.48640      -     -    0s
     0     0   45.48640    0   59          -   45.48640      -     -    0s
     0     0   45.92473    0   59          -   45.92473      -     -    0s
     0     0   46.03203    0   79          -   46.03203      -     -    0s
     0     0   46.03685    0   79          -   46.03685      -     -    0s
     0     0   46.17954    0   55          -   46.17954      -     -    0s
     0     0   46.17954    0   53          -   46.17954      -     -    0s
     0     0   46.29252    0   47          -   46.29252      -     -    0s
     0     0   46.29252    0   48          -   46.29252      -     -    0s
     0     0   47.13492    0   84          -   47.13492      -     -    0s
     0     0   47.15315    0   83          -   47.15315      -     -    0s
     0     0   47.15315    0   84          -   47.15315      -     -    0s
     0     0   47.16403    0   81          -   47.16403      -     -    0s
     0     0   47.16403    0   61          -   47.16403      -     -    0s
     0     2   47.16403    0   51          -   47.16403      -     -    0s
 35563 20631 infeasible   53               -  140.00000      -   4.1    5s
 78087 38218 13755.0395 1109    8          -  166.00000      -   4.0   10s
 140418 65013 infeasible   70               -  181.00000      -   3.7   15s
 198486 85124 infeasible   83               -  196.00000      -   3.6   20s
 275274 113872  314.00000   46   11          -  207.00000      -   3.4   25s
 353132 142197  236.00000   52   11          -  217.00000      -   3.4   30s
 426347 163297 infeasible   56               -  227.00000      -   3.3   35s
 498705 183060 infeasible   98               -  234.00000      -   3.3   40s
 572360 204032  316.00000   46   15          -  240.00000      -   3.3   45s
 644040 220815 infeasible  100               -  247.00000      -   3.3   50s
 713340 233848 infeasible   61               -  253.00000      -   3.3   55s
 783551 247166 infeasible   78               -  259.00000      -   3.3   60s
 849583 260807 infeasible   56               -  264.05785      -   3.2   65s
 919848 272744  281.00000   65    8          -  270.00000      -   3.2   70s
 993781 291472 infeasible   69               -  274.00000      -   3.2   75s
 1064369 309245  530.00000   52    8          -  278.00000      -   3.2   80s
 1138897 331985  303.00000   92    8          -  281.00000      -   3.2   85s
 1209459 345549 infeasible   69               -  285.00000      -   3.2   90s
 1280951 358535 infeasible   96               -  289.00000      -   3.2   95s
 1350356 367578  301.00000   82    8          -  293.00000      -   3.2  100s
 1420356 378211 infeasible  106               -  296.00000      -   3.2  105s
 1490118 387081 infeasible   76               -  300.00000      -   3.2  110s
 1560599 396910 infeasible  109               -  304.00000      -   3.2  115s
 1630527 406696 infeasible   84               -  307.00000      -   3.2  120s
 1696808 415816 infeasible   86               -  310.00000      -   3.2  125s
 1766787 425374 infeasible   74               -  313.00000      -   3.2  130s
 1836523 432924 infeasible   71               -  317.00000      -   3.2  135s
 1904915 440745 infeasible  104               -  320.00000      -   3.2  140s
 1966313 449398  333.00000  107   11          -  322.00000      -   3.2  145s
 2030019 455546  432.00000   91    8          -  325.00000      -   3.2  150s
 2099811 461835 infeasible   93               -  329.00000      -   3.2  155s
 2167065 467520 infeasible   64               -  332.00000      -   3.2  160s
 2232669 470993 infeasible   87               -  335.00000      -   3.2  165s
 2301204 475560 infeasible   91               -  338.00000      -   3.2  170s
 2371829 483949 infeasible   96               -  341.00000      -   3.2  175s
 2440748 490323  371.00000   55   10          -  343.00000      -   3.2  180s
 2504994 493595 infeasible   93               -  346.00000      -   3.2  185s
 2572762 496861 infeasible  108               -  349.00000      -   3.2  190s
 2641612 502834 infeasible   97               -  352.00000      -   3.2  195s
 2708296 505250 infeasible   85               -  355.00000      -   3.2  200s
 2776395 511697 infeasible   85               -  357.00000      -   3.2  205s
 2842211 512817 infeasible  102               -  360.00000      -   3.2  210s
 2909464 518254 infeasible   75               -  363.00000      -   3.2  215s
 2977113 522966 infeasible   68               -  365.00000      -   3.2  220s
 3044825 524634 infeasible   66               -  368.00000      -   3.2  225s
 3114559 531377 infeasible   77               -  371.00000      -   3.1  230s
 3178559 532533 infeasible   88               -  373.00000      -   3.1  235s
 3247206 534494 infeasible   71               -  376.00000      -   3.1  240s
 3309225 535474  421.00000   94    8          -  378.00000      -   3.1  245s
 3374359 534421 infeasible   97               -  381.00000      -   3.1  250s
 3441904 536024 infeasible   91               -  384.00000      -   3.1  255s
 3508262 540583  425.00000   83   10          -  386.00000      -   3.1  260s
 3575549 541887 infeasible  102               -  389.00000      -   3.1  265s
 3644673 546249 infeasible   58               -  391.00000      -   3.1  270s
 3711085 546060 infeasible   98               -  394.00000      -   3.1  275s
 3779489 550188 infeasible   69               -  396.26456      -   3.1  280s
 3844164 547372 infeasible   73               -  399.00000      -   3.1  285s
 3910315 545974 infeasible   84               -  402.00000      -   3.1  290s
 3969429 546649 infeasible   57               -  404.00000      -   3.1  295s
 4032484 543376 infeasible   58               -  407.00000      -   3.1  300s
 4097380 547465 infeasible   91               -  410.00000      -   3.1  305s
 4163163 545167 infeasible   94               -  412.00000      -   3.1  310s
 4229911 545820 infeasible  126               -  415.00000      -   3.1  315s
 4296609 546400 infeasible   65               -  418.00000      -   3.1  320s
 4362764 545855 infeasible   90               -  420.00000      -   3.1  325s
 4427052 543323 infeasible   64               -  423.00000      -   3.1  330s
 4491505 542360 infeasible   90               -  426.00000      -   3.1  335s
 4558674 544297 infeasible   78               -  428.00000      -   3.1  340s
 4624623 542398 infeasible   80               -  431.00000      -   3.1  345s
 4692349 541394 infeasible   80               -  434.00000      -   3.1  350s
 4749107 540217 infeasible   69               -  436.00000      -   3.1  355s
 4813297 536946 infeasible   92               -  439.00000      -   3.1  360s
 4876504 537222 infeasible  111               -  442.00000      -   3.1  365s
 4943715 535798 infeasible   99               -  445.00000      -   3.1  370s
 5010639 533056 infeasible  120               -  448.00000      -   3.1  375s
 5075657 531232 infeasible   67               -  451.00000      -   3.1  380s
 5143825 531805 infeasible   81               -  453.00000      -   3.1  385s
 5190858 531048 6251.87500  124   18          -  455.82509      -   3.1  390s
 5243474 525224 infeasible   76               -  458.00000      -   3.1  395s
 5309439 522469 infeasible   85               -  461.00000      -   3.1  400s
 5374448 518082 infeasible   77               -  464.00000      -   3.1  405s
 5440788 514798  479.00000  110    9          -  467.00000      -   3.1  410s
 5506100 512359 infeasible  105               -  470.00000      -   3.1  415s
 5571074 504756 infeasible   85               -  474.00000      -   3.1  420s
 5633007 500542 infeasible  115               -  477.00000      -   3.1  425s
 5700383 498019 infeasible   62               -  480.00000      -   3.1  430s
 5766742 492133 infeasible   72               -  484.00000      -   3.1  435s
 5832954 488608 infeasible   77               -  487.00000      -   3.1  440s
 5900227 483508 infeasible   60               -  491.00000      -   3.1  445s
 5967592 480504 infeasible   91               -  495.00000      -   3.1  450s
 6034474 474330 infeasible   86               -  498.00000      -   3.0  455s
 6103034 470668 infeasible   41               -  502.00000      -   3.0  460s
 6170847 469016 infeasible  105               -  505.53571      -   3.0  465s
 6238730 464535 infeasible   92               -  509.00000      -   3.0  470s
 6305593 458185 infeasible   80               -  513.00000      -   3.0  475s
 6371205 453480 infeasible  105               -  517.00000      -   3.0  480s
 6433745 448402  536.00000   72    8          -  520.00000      -   3.0  485s
 6502563 443258 infeasible   81               -  524.00000      -   3.0  490s
 6569276 435399 infeasible  107               -  529.00000      -   3.0  495s
 6622920 429574 infeasible  103               -  532.00000      -   3.0  500s
 6689680 423214 infeasible   70               -  536.00000      -   3.0  505s
 6756055 415901 infeasible  112               -  541.00000      -   3.0  510s
 6822168 408254 infeasible   64               -  545.00000      -   3.0  515s
 6890148 402666 infeasible   78               -  550.00000      -   3.0  520s
 6957076 395012 infeasible   78               -  554.00000      -   3.0  525s
 7024165 387049 infeasible   91               -  559.00000      -   3.0  530s
 7089820 378371 infeasible   86               -  564.00000      -   3.0  535s
 7156730 370170 infeasible  118               -  569.00000      -   3.0  540s
 7218121 360439 infeasible   57               -  574.00000      -   3.0  545s
 7283234 351621 infeasible  106               -  579.00000      -   3.0  550s
 7351741 344125 infeasible   91               -  585.00000      -   3.0  555s
 7418645 335472 infeasible   89               -  590.00000      -   3.0  560s
 7485669 327537 infeasible   88               -  596.00000      -   3.0  565s
 7553418 320644 infeasible   64               -  601.00000      -   3.0  570s
 7619882 311196 infeasible   64               -  607.00000      -   3.0  575s
 7687607 301846 infeasible  100               -  614.00000      -   3.0  580s
 7755225 290810 infeasible  100               -  620.00000      -   3.0  585s
 7822311 282034 infeasible  100               -  627.00000      -   3.0  590s
 7890981 272716 infeasible   73               -  634.00000      -   3.0  595s
 7958329 263465 infeasible   80               -  641.00000      -   3.0  600s
 8021311 252262 infeasible   86               -  649.00000      -   3.0  605s
 8089602 242743 infeasible  115               -  657.00000      -   3.0  610s
 8156012 231794  665.00000   61    8          -  665.00000      -   3.0  615s
 8222990 218637 infeasible   99               -  674.00000      -   3.0  620s
 8289546 204951 infeasible   66               -  684.00000      -   3.0  625s
 8356007 192143 infeasible   96               -  694.00000      -   2.9  630s
 8422733 178163 infeasible   79               -  705.00000      -   2.9  635s
 8488261 162110 infeasible   84               -  717.00000      -   2.9  640s
 8554304 146296 infeasible  105               -  730.00000      -   2.9  645s
 8620768 132237 infeasible  122               -  745.00000      -   2.9  650s
 8687681 115034 infeasible   81               -  762.00000      -   2.9  655s
 8756195 98806 infeasible  119               -  781.00000      -   2.9  660s
 8819250 83046 infeasible  133               -  801.00000      -   2.9  665s
 8886269 65169 infeasible  106               -  828.00000      -   2.9  670s
 8952870 45143 infeasible   83               -  867.00000      -   2.9  675s
 9019928 23998 infeasible   97               -  932.00000      -   2.9  680s

Cutting planes:
  Gomory: 41
  MIR: 25
  StrongCG: 3
  Flow cover: 84
  Inf proof: 15
  Zero half: 7
  Mod-K: 1

Explored 9067553 nodes (26426881 simplex iterations) in 683.88 seconds
Thread count was 4 (of 4 available processors)

Solution count 0

Model is infeasible
Best objective -, best bound -, gap -

Gurobi 8.1.1 (win64) logging started 11/24/19 12:41:22

Changed value of parameter LogFile to logs/drand/feas/drand-10-075-2.log
   Prev: gurobi.log  Default: 
Changed value of parameter LogToConsole to 0
   Prev: 1  Min: 0  Max: 1  Default: 1
Changed value of parameter TimeLimit to 3600.0
   Prev: 1e+100  Min: 0.0  Max: 1e+100  Default: 1e+100
Optimize a model with 626 rows, 288 columns and 2296 nonzeros
Variable types: 0 continuous, 288 integer (280 binary)
Coefficient statistics:
  Matrix range     [1e+00, 4e+02]
  Objective range  [1e+00, 1e+00]
  Bounds range     [1e+00, 1e+00]
  RHS range        [1e+00, 4e+02]
Presolve time: 0.01s
Presolved: 626 rows, 288 columns, 2296 nonzeros
Variable types: 0 continuous, 288 integer (280 binary)

Root relaxation: objective 2.800000e+01, 151 iterations, 0.00 seconds

    Nodes    |    Current Node    |     Objective Bounds      |     Work
 Expl Unexpl |  Obj  Depth IntInf | Incumbent    BestBd   Gap | It/Node Time

     0     0   28.00000    0  117          -   28.00000      -     -    0s
H    0     0                     200.0000000   28.00000  86.0%     -    0s
     0     0   37.00312    0   61  200.00000   37.00312  81.5%     -    0s
     0     0   42.88199    0   66  200.00000   42.88199  78.6%     -    0s
     0     0   42.88199    0   64  200.00000   42.88199  78.6%     -    0s
     0     0   45.97422    0   58  200.00000   45.97422  77.0%     -    0s
     0     0   46.03255    0   63  200.00000   46.03255  77.0%     -    0s
     0     0   46.09562    0   65  200.00000   46.09562  77.0%     -    0s
     0     0   46.25125    0   58  200.00000   46.25125  76.9%     -    0s
     0     0   46.28295    0   58  200.00000   46.28295  76.9%     -    0s
     0     0   46.28295    0   58  200.00000   46.28295  76.9%     -    0s
     0     0   58.36965    0   39  200.00000   58.36965  70.8%     -    0s
     0     0   63.97402    0   38  200.00000   63.97402  68.0%     -    0s
     0     0   63.97402    0   40  200.00000   63.97402  68.0%     -    0s
     0     0   63.97499    0   57  200.00000   63.97499  68.0%     -    0s
     0     0   63.97499    0   58  200.00000   63.97499  68.0%     -    0s
     0     0   63.97873    0   50  200.00000   63.97873  68.0%     -    0s
     0     0   64.00186    0   43  200.00000   64.00186  68.0%     -    0s
     0     0   64.01151    0   47  200.00000   64.01151  68.0%     -    0s
     0     0   64.01565    0   52  200.00000   64.01565  68.0%     -    0s
     0     0   64.14313    0   36  200.00000   64.14313  67.9%     -    0s
     0     0   64.14313    0   36  200.00000   64.14313  67.9%     -    0s
     0     0   64.32914    0   37  200.00000   64.32914  67.8%     -    0s
     0     0   64.32914    0   43  200.00000   64.32914  67.8%     -    0s
     0     0   64.70177    0   45  200.00000   64.70177  67.6%     -    0s
     0     0   64.80135    0   45  200.00000   64.80135  67.6%     -    0s
     0     0   64.89183    0   45  200.00000   64.89183  67.6%     -    0s
     0     0   64.94033    0   46  200.00000   64.94033  67.5%     -    0s
     0     0   64.98320    0   46  200.00000   64.98320  67.5%     -    0s
     0     0   65.18482    0   64  200.00000   65.18482  67.4%     -    0s
     0     0   65.20424    0   64  200.00000   65.20424  67.4%     -    0s
     0     0   65.20424    0   65  200.00000   65.20424  67.4%     -    0s
     0     0   65.21094    0   47  200.00000   65.21094  67.4%     -    0s
     0     0   65.21094    0   49  200.00000   65.21094  67.4%     -    0s
     0     0   65.21094    0   46  200.00000   65.21094  67.4%     -    0s
     0     0   65.21094    0   44  200.00000   65.21094  67.4%     -    0s
H    0     0                     196.0000000   65.21094  66.7%     -    0s
     0     2   65.21094    0   43  196.00000   65.21094  66.7%     -    0s
H 1935   916                     194.0000000   99.72388  48.6%  11.7    2s
H 5648  2404                     193.0000000  124.00000  35.8%   9.1    2s
H 6131  2585                     189.0000000  124.00000  34.4%   9.0    3s
H 9686  3615                     188.0000000  132.43309  29.6%   8.2    3s
 16028  4244 infeasible   29       188.00000  145.00000  22.9%   7.4    5s
*17585  2822              59     169.0000000  148.00000  12.4%   7.4    5s

Cutting planes:
  Gomory: 15
  Implied bound: 42
  MIR: 22
  StrongCG: 8
  Flow cover: 63
  Inf proof: 2

Explored 21625 nodes (156515 simplex iterations) in 6.04 seconds
Thread count was 4 (of 4 available processors)

Solution count 7: 169 188 189 ... 200

Optimal solution found (tolerance 1.00e-04)
Best objective 1.690000000000e+02, best bound 1.690000000000e+02, gap 0.0000%
